NAME : a280
COMMENT : Tour length 3248
TYPE : TOUR
DIMENSION : 280
TOUR_SECTION
1
2
280
3
279
278
248
249
250
251
230
229
228
227
226
225
224
223
222
219
218
215
214
211
210
207
208
209
252
253
254
255
256
257
258
259
260
261
262
263
264
265
266
138
137
136
135
134
270
269
268
267
140
139
148
141
142
143
144
145
146
147
149
150
178
151
152
156
153
155
154
129
128
21
20
19
18
17
16
271
272
273
274
275
276
277
4
5
6
7
8
9
10
11
12
13
14
24
23
25
22
26
27
28
29
31
30
125
124
123
122
121
120
119
157
158
159
160
175
161
162
163
164
165
166
167
168
169
101
100
99
98
93
94
95
96
97
92
91
90
89
81
80
79
76
75
74
73
72
71
70
67
66
65
64
63
62
118
117
115
114
111
110
108
104
103
102
170
171
172
173
106
105
107
174
182
181
176
177
179
180
183
184
185
187
186
190
189
188
191
192
194
195
196
197
198
199
200
201
202
203
204
205
206
212
213
216
217
220
221
234
233
232
231
238
237
236
235
246
245
240
239
247
244
241
242
243
15
133
132
131
130
127
126
32
33
34
35
36
37
38
39
40
41
42
43
60
61
59
44
45
46
47
48
49
50
51
52
53
54
55
56
57
58
68
69
85
84
83
82
88
112
113
87
86
116
109
77
78
193
1
-1
EOF